c turning on binary mode checking
c parsing input formula with 259840 variables and 1039929 clauses
c finished parsing, read 23072885 bytes from proof file
c detected empty clause; start verification via backward checking
c 6824 of 1039929 clauses in core                            
c 7933 of 605945 lemmas in core using 49988 resolution steps
c 0 RAT lemmas in core; 355 redundant literals in core lemmas
s VERIFIED
c verification time: 2.625 seconds
